p tw 182 9101 1 
1 2 
1 3 
1 4 
1 5 
1 6 
1 7 
1 8 
1 9 
1 10 
1 11 
1 12 
1 13 
1 14 
1 15 
1 16 
1 17 
1 18 
1 19 
1 20 
1 21 
1 22 
1 23 
1 24 
1 25 
1 26 
1 27 
1 28 
1 29 
1 30 
1 31 
1 32 
1 33 
1 34 
1 35 
1 36 
1 37 
1 38 
1 39 
1 40 
1 41 
1 42 
1 43 
1 44 
1 45 
1 46 
1 47 
1 48 
1 49 
1 50 
1 51 
1 52 
1 53 
1 54 
1 55 
1 56 
1 57 
1 58 
1 59 
1 60 
1 61 
1 62 
1 63 
1 64 
1 65 
1 66 
1 67 
1 68 
1 69 
1 70 
1 71 
1 72 
1 73 
1 74 
1 75 
1 76 
1 77 
1 78 
1 79 
1 80 
1 81 
1 82 
1 83 
1 84 
1 85 
1 86 
1 87 
1 88 
1 89 
1 90 
1 91 
2 92 
2 93 
2 94 
2 95 
2 96 
2 97 
2 98 
2 99 
2 100 
2 101 
2 102 
2 103 
2 104 
2 105 
2 106 
2 107 
2 108 
2 109 
2 110 
2 111 
2 112 
2 113 
2 114 
2 115 
2 116 
2 117 
2 118 
2 119 
2 120 
2 121 
2 122 
2 123 
2 124 
2 125 
2 126 
2 127 
2 128 
2 129 
2 130 
2 131 
2 132 
2 133 
2 134 
2 135 
2 136 
2 137 
2 138 
2 139 
2 140 
2 141 
2 142 
2 143 
2 144 
2 145 
2 146 
2 147 
2 148 
2 149 
2 150 
2 151 
2 152 
2 153 
2 154 
2 155 
2 156 
2 157 
2 158 
2 159 
2 160 
2 161 
2 162 
2 163 
2 164 
2 165 
2 166 
2 167 
2 168 
2 169 
2 170 
2 171 
2 172 
2 173 
2 174 
2 175 
2 176 
2 177 
2 178 
2 179 
2 180 
2 181 
2 182 
1 93 
1 94 
1 95 
1 96 
1 97 
1 98 
1 99 
1 100 
1 101 
1 102 
2 92 
2 94 
2 103 
2 104 
2 105 
2 106 
2 107 
2 108 
2 109 
2 110 
3 92 
3 93 
3 111 
3 112 
3 113 
3 114 
3 115 
3 116 
3 117 
3 118 
4 92 
4 95 
4 128 
4 132 
4 137 
4 156 
4 162 
4 167 
4 170 
4 171 
5 92 
5 96 
5 119 
5 133 
5 141 
5 150 
5 158 
5 163 
5 168 
5 169 
6 92 
6 97 
6 122 
6 126 
6 138 
6 144 
6 161 
6 164 
6 173 
6 174 
7 92 
7 98 
7 120 
7 127 
7 134 
7 142 
7 151 
7 166 
7 181 
7 182 
8 92 
8 99 
8 124 
8 135 
8 139 
8 147 
8 152 
8 172 
8 179 
8 180 
9 92 
9 100 
9 121 
9 129 
9 143 
9 145 
9 148 
9 153 
9 154 
9 155 
10 92 
10 101 
10 123 
10 130 
10 136 
10 149 
10 157 
10 159 
10 175 
10 176 
11 92 
11 102 
11 125 
11 131 
11 140 
11 146 
11 160 
11 165 
11 177 
11 178 
12 93 
12 103 
12 128 
12 133 
12 145 
12 151 
12 157 
12 161 
12 177 
12 179 
13 93 
13 104 
13 120 
13 126 
13 137 
13 141 
13 146 
13 147 
13 148 
13 149 
14 93 
14 105 
14 119 
14 136 
14 138 
14 142 
14 154 
14 165 
14 171 
14 172 
15 93 
15 106 
15 121 
15 131 
15 132 
15 152 
15 163 
15 166 
15 174 
15 175 
16 93 
16 107 
16 122 
16 129 
16 139 
16 150 
16 156 
16 176 
16 178 
16 181 
17 93 
17 108 
17 124 
17 134 
17 140 
17 144 
17 155 
17 159 
17 169 
17 170 
18 93 
18 109 
18 123 
18 127 
18 135 
18 153 
18 160 
18 164 
18 167 
18 168 
19 93 
19 110 
19 125 
19 130 
19 143 
19 158 
19 162 
19 173 
19 180 
19 182 
20 94 
20 111 
20 127 
20 136 
20 139 
20 141 
20 155 
20 162 
20 174 
20 177 
21 94 
21 112 
21 120 
21 131 
21 135 
21 138 
21 145 
21 156 
21 158 
21 159 
22 94 
22 113 
22 123 
22 129 
22 137 
22 151 
22 152 
22 165 
22 169 
22 173 
23 94 
23 114 
23 119 
23 132 
23 140 
23 147 
23 153 
23 161 
23 176 
23 182 
24 94 
24 115 
24 121 
24 126 
24 142 
24 150 
24 157 
24 160 
24 170 
24 180 
25 94 
25 116 
25 124 
25 133 
25 143 
25 149 
25 164 
25 166 
25 171 
25 178 
26 94 
26 117 
26 122 
26 130 
26 134 
26 146 
26 154 
26 163 
26 167 
26 179 
27 94 
27 118 
27 125 
27 128 
27 144 
27 148 
27 168 
27 172 
27 175 
27 181 
28 95 
28 103 
28 111 
28 119 
28 120 
28 121 
28 122 
28 123 
28 124 
28 125 
29 95 
29 104 
29 112 
29 130 
29 142 
29 152 
29 155 
29 161 
29 168 
29 178 
30 95 
30 105 
30 113 
30 133 
30 146 
30 153 
30 159 
30 174 
30 180 
30 181 
31 95 
31 106 
31 114 
31 134 
31 139 
31 148 
31 157 
31 158 
31 164 
31 165 
32 95 
32 107 
32 115 
32 127 
32 140 
32 145 
32 149 
32 163 
32 172 
32 173 
33 95 
33 108 
33 116 
33 129 
33 138 
33 141 
33 160 
33 175 
33 179 
33 182 
34 95 
34 109 
34 117 
34 131 
34 136 
34 143 
34 144 
34 147 
34 150 
34 151 
35 95 
35 110 
35 118 
35 126 
35 135 
35 154 
35 166 
35 169 
35 176 
35 177 
36 96 
36 103 
36 112 
36 134 
36 137 
36 143 
36 160 
36 172 
36 174 
36 176 
37 97 
37 103 
37 113 
37 131 
37 139 
37 149 
37 154 
37 168 
37 170 
37 182 
38 98 
38 103 
38 114 
38 135 
38 146 
38 150 
38 155 
38 171 
38 173 
38 175 
39 99 
39 103 
39 115 
39 130 
39 141 
39 144 
39 153 
39 156 
39 165 
39 166 
40 100 
40 103 
40 116 
40 126 
40 136 
40 140 
40 152 
40 158 
40 167 
40 181 
41 101 
41 103 
41 117 
41 127 
41 132 
41 138 
41 148 
41 169 
41 178 
41 180 
42 102 
42 103 
42 118 
42 129 
42 142 
42 147 
42 159 
42 162 
42 163 
42 164 
43 96 
43 104 
43 111 
43 140 
43 151 
43 154 
43 156 
43 164 
43 175 
43 180 
44 97 
44 106 
44 111 
44 130 
44 145 
44 147 
44 160 
44 169 
44 171 
44 181 
45 98 
45 107 
45 111 
45 126 
45 132 
45 143 
45 159 
45 165 
45 168 
45 179 
46 99 
46 108 
46 111 
46 131 
46 133 
46 142 
46 148 
46 167 
46 173 
46 176 
47 100 
47 105 
47 111 
47 135 
47 137 
47 144 
47 157 
47 163 
47 178 
47 182 
48 101 
48 109 
48 111 
48 129 
48 146 
48 158 
48 161 
48 166 
48 170 
48 172 
49 102 
49 110 
49 111 
49 128 
49 134 
49 138 
49 149 
49 150 
49 152 
49 153 
50 96 
50 105 
50 114 
50 124 
50 126 
50 127 
50 128 
50 129 
50 130 
50 131 
51 96 
51 107 
51 113 
51 125 
51 138 
51 147 
51 155 
51 157 
51 166 
51 167 
52 96 
52 108 
52 117 
52 121 
52 135 
52 149 
52 161 
52 162 
52 165 
52 181 
53 96 
53 110 
53 116 
53 123 
53 132 
53 139 
53 142 
53 144 
53 145 
53 146 
54 96 
54 106 
54 118 
54 120 
54 136 
54 153 
54 170 
54 173 
54 178 
54 179 
55 96 
55 109 
55 115 
55 122 
55 148 
55 152 
55 159 
55 171 
55 177 
55 182 
56 97 
56 104 
56 115 
56 125 
56 129 
56 132 
56 133 
56 134 
56 135 
56 136 
57 102 
57 105 
57 115 
57 120 
57 139 
57 143 
57 161 
57 167 
57 169 
57 175 
58 97 
58 108 
58 118 
58 119 
58 127 
58 143 
58 146 
58 152 
58 156 
58 157 
59 97 
59 105 
59 112 
59 123 
59 140 
59 148 
59 150 
59 162 
59 166 
59 179 
60 97 
60 109 
60 116 
60 120 
60 128 
60 155 
60 163 
60 165 
60 176 
60 180 
61 97 
61 110 
61 114 
61 121 
61 141 
61 151 
61 159 
61 167 
61 172 
61 178 
62 97 
62 107 
62 117 
62 124 
62 137 
62 142 
62 153 
62 158 
62 175 
62 177 
63 98 
63 105 
63 117 
63 125 
63 141 
63 145 
63 152 
63 164 
63 170 
63 176 
64 101 
64 105 
64 116 
64 121 
64 134 
64 147 
64 156 
64 168 
64 173 
64 177 
65 99 
65 105 
65 118 
65 122 
65 132 
65 149 
65 151 
65 155 
65 158 
65 160 
66 98 
66 104 
66 116 
66 122 
66 131 
66 153 
66 157 
66 162 
66 169 
66 172 
67 98 
67 109 
67 118 
67 121 
67 130 
67 133 
67 137 
67 138 
67 139 
67 140 
68 101 
68 104 
68 118 
68 124 
68 145 
68 150 
68 165 
68 167 
68 174 
68 182 
69 100 
69 107 
69 118 
69 123 
69 131 
69 134 
69 141 
69 161 
69 171 
69 180 
70 99 
70 106 
70 116 
70 125 
70 127 
70 137 
70 150 
70 154 
70 159 
70 161 
71 102 
71 107 
71 116 
71 119 
71 130 
71 135 
71 148 
71 151 
71 170 
71 174 
72 102 
72 106 
72 117 
72 123 
72 126 
72 133 
72 155 
72 156 
72 172 
72 182 
73 100 
73 104 
73 117 
73 119 
73 128 
73 139 
73 159 
73 160 
73 166 
73 173 
74 99 
74 110 
74 117 
74 120 
74 129 
74 140 
74 157 
74 168 
74 171 
74 174 
75 102 
75 104 
75 113 
75 121 
75 127 
75 144 
75 158 
75 171 
75 176 
75 179 
76 99 
76 104 
76 114 
76 123 
76 138 
76 143 
76 163 
76 170 
76 177 
76 181 
77 99 
77 109 
77 113 
77 119 
77 126 
77 134 
77 145 
77 162 
77 175 
77 178 
78 99 
78 107 
78 112 
78 121 
78 128 
78 136 
78 146 
78 164 
78 169 
78 182 
79 101 
79 107 
79 114 
79 120 
79 133 
79 144 
79 152 
79 154 
79 160 
79 162 
80 100 
80 109 
80 114 
80 125 
80 142 
80 149 
80 156 
80 169 
80 174 
80 179 
81 102 
81 108 
81 114 
81 122 
81 136 
81 137 
81 145 
81 166 
81 168 
81 180 
82 102 
82 109 
82 112 
82 124 
82 132 
82 141 
82 154 
82 157 
82 173 
82 181 
83 98 
83 106 
83 112 
83 119 
83 129 
83 144 
83 149 
83 167 
83 177 
83 180 
84 98 
84 110 
84 113 
84 124 
84 136 
84 148 
84 156 
84 160 
84 161 
84 163 
85 98 
85 108 
85 115 
85 123 
85 128 
85 147 
85 154 
85 158 
85 174 
85 178 
86 101 
86 106 
86 113 
86 122 
86 128 
86 135 
86 140 
86 141 
86 142 
86 143 
87 100 
87 106 
87 115 
87 124 
87 138 
87 146 
87 151 
87 162 
87 168 
87 176 
88 100 
88 108 
88 113 
88 120 
88 130 
88 132 
88 150 
88 164 
88 172 
88 177 
89 100 
89 110 
89 112 
89 122 
89 127 
89 133 
89 147 
89 165 
89 170 
89 175 
90 101 
90 108 
90 112 
90 125 
90 126 
90 139 
90 151 
90 153 
90 163 
90 171 
91 101 
91 110 
91 115 
91 119 
91 131 
91 137 
91 155 
91 164 
91 179 
91 181 
